\ENCODING=ISO-8859-1
\Problem name: gr4x6.mps

Maximize
 COST: -0.69 X0               -0.64 X1               -0.71 X2               -0.79 X3               -1.7 X4               -2.83 X5               -1.01 X6               -0.75 X7               -0.88 X8               -0.59 X9               -1.5 X10              -2.63 X11              -1.05 X12              -1.06 X13              -1.08 X14              -0.64 X15              -1.22 X16              -2.37 X17              -1.94 X18              -1.5 X19              -1.56 X20              -1.22 X21              -1.98 X22              -1.98 X23              -11 Y0               -16 Y1               -18 Y2               -17 Y3               -10 Y4               -20 Y5               -14 Y6               -17 Y7               -17 Y8               -13 Y9               -15 Y10              -13 Y11              -12 Y12              -13 Y13              -20 Y14              -17 Y15              -13 Y16              -15 Y17              -16 Y18              -19 Y19              -15 Y20              -11 Y21              -15 Y22              -12 Y23
Subject To
 A0:  X0 + X1 + X2 + X3 + X4 + X5  = 45
 A1:  X6 + X7 + X8 + X9 + X10 + X11  = 35
 A2:  X12 + X13 + X14 + X15 + X16 + X17  = 20
 A3:  X18 + X19 + X20 + X21 + X22 + X23  = 15
 B0:  X0 + X6 + X12 + X18  = 35
 B1:  X1 + X7 + X13 + X19  = 30
 B2:  X2 + X8 + X14 + X20  = 25
 B3:  X3 + X9 + X15 + X21  = 15
 B4:  X4 + X10 + X16 + X22  = 5
 B5:  X5 + X11 + X17 + X23  = 5
 G0:  X0 - 35 Y0 <= 0
 G1:  X1 - 30 Y1 <= 0
 G2:  X2 - 25 Y2 <= 0
 G3:  X3 - 15 Y3 <= 0
 G4:  X4 - 5 Y4 <= 0
 G5:  X5 - 5 Y5 <= 0
 G6:  X6 - 35 Y6 <= 0
 G7:  X7 - 30 Y7 <= 0
 G8:  X8 - 25 Y8 <= 0
 G9:  X9 - 15 Y9 <= 0
 G10: X10 - 5 Y10 <= 0
 G11: X11 - 5 Y11 <= 0
 G12: X12 - 20 Y12 <= 0
 G13: X13 - 20 Y13 <= 0
 G14: X14 - 20 Y14 <= 0
 G15: X15 - 15 Y15 <= 0
 G16: X16 - 5 Y16 <= 0
 G17: X17 - 5 Y17 <= 0
 G18: X18 - 15 Y18 <= 0
 G19: X19 - 15 Y19 <= 0
 G20: X20 - 15 Y20 <= 0
 G21: X21 - 15 Y21 <= 0
 G22: X22 - 5 Y22 <= 0
 G23: X23 - 5 Y23 <= 0
Bounds
 0 <= Y0 <= 1
 0 <= Y1 <= 1
 0 <= Y2 <= 1
 0 <= Y3 <= 1
 0 <= Y4 <= 1
 0 <= Y5 <= 1
 0 <= Y6 <= 1
 0 <= Y7 <= 1
 0 <= Y8 <= 1
 0 <= Y9 <= 1
 0 <= Y10 <= 1
 0 <= Y11 <= 1
 0 <= Y12 <= 1
 0 <= Y13 <= 1
 0 <= Y14 <= 1
 0 <= Y15 <= 1
 0 <= Y16 <= 1
 0 <= Y17 <= 1
 0 <= Y18 <= 1
 0 <= Y19 <= 1
 0 <= Y20 <= 1
 0 <= Y21 <= 1
 0 <= Y22 <= 1
 0 <= Y23 <= 1
Binaries
 Y0  Y1  Y2  Y3  Y4  Y5  Y6  Y7  Y8  Y9  Y10  Y11  Y12  Y13  Y14  Y15  Y16 
 Y17  Y18  Y19  Y20  Y21  Y22  Y23 
End
